50
100
100
97
92
91
89
88
83
82
82
82
78
77
77
77
73
72
68
67
66
65
64
62
60
60
57
53
50
48
46
42
40
40
38
37
37
31
30
29
28
21
20
20
20
20
18
18
15
15
11
1
